inputs/404.in
8
0 83 63 48 71 10 62 27 
83 0 23 82 78 94 10 57 
63 23 0 6 11 14 62 35 
48 82 6 0 33 79 61 48 
71 78 11 33 0 28 98 47 
10 94 14 79 28 0 10 74 
62 10 62 61 98 10 0 27 
27 57 35 48 47 74 27 0 
BRBRBRBR
