output/404.out
23 5 3 25 14 28 30 31 8 18 1 15 48 38 26 27 47 39 41 2 24 29 35 50 13 20 33 44 22 36 45 11 19 49 4 37 34 6 43 17 12 40 10 42 21 7 9 16 32 46 
